p edge 534 499
e 1 2
e 1 3
e 1 4
e 1 5
e 1 6
e 1 7
e 1 8
e 1 9
e 1 10
e 1 11
e 12 13
e 12 14
e 12 15
e 12 16
e 12 17
e 12 18
e 12 19
e 12 20
e 12 21
e 12 22
e 12 23
e 12 24
e 12 25
e 26 27
e 26 28
e 26 29
e 26 30
e 26 31
e 26 32
e 26 33
e 26 34
e 26 35
e 26 36
e 26 37
e 26 38
e 26 39
e 40 41
e 40 42
e 40 43
e 40 44
e 40 45
e 40 46
e 40 47
e 40 48
e 40 49
e 40 50
e 40 51
e 40 52
e 53 54
e 53 55
e 53 56
e 53 57
e 53 58
e 53 59
e 53 60
e 53 61
e 53 62
e 53 63
e 53 64
e 53 65
e 53 66
e 53 67
e 53 68
e 53 69
e 53 70
e 53 71
e 53 72
e 53 73
e 74 75
e 74 76
e 74 77
e 74 78
e 74 79
e 74 80
e 74 81
e 74 82
e 74 83
e 74 84
e 74 85
e 74 86
e 74 87
e 74 88
e 89 90
e 89 91
e 89 92
e 89 93
e 89 94
e 89 95
e 89 96
e 89 97
e 89 98
e 89 99
e 89 100
e 89 101
e 89 102
e 89 103
e 89 104
e 89 105
e 89 106
e 89 107
e 89 108
e 109 110
e 109 111
e 109 112
e 109 113
e 109 114
e 109 115
e 109 116
e 109 117
e 109 118
e 109 119
e 109 120
e 109 121
e 109 122
e 109 123
e 109 124
e 109 125
e 126 127
e 126 128
e 126 129
e 126 130
e 126 131
e 126 132
e 126 133
e 126 134
e 126 135
e 126 136
e 126 137
e 126 138
e 126 139
e 126 140
e 126 141
e 126 142
e 126 143
e 126 144
e 126 145
e 146 147
e 146 148
e 146 149
e 146 150
e 146 151
e 146 152
e 146 153
e 146 154
e 146 155
e 146 156
e 157 158
e 157 159
e 157 160
e 157 161
e 157 162
e 157 163
e 157 164
e 157 165
e 157 166
e 157 167
e 157 168
e 157 169
e 157 170
e 157 171
e 172 173
e 172 174
e 172 175
e 172 176
e 172 177
e 172 178
e 172 179
e 172 180
e 172 181
e 172 182
e 172 183
e 172 184
e 172 185
e 172 186
e 172 187
e 188 189
e 188 190
e 188 191
e 188 192
e 188 193
e 188 194
e 188 195
e 188 196
e 188 197
e 188 198
e 188 199
e 188 200
e 188 201
e 188 202
e 188 203
e 204 205
e 204 206
e 204 207
e 204 208
e 204 209
e 204 210
e 204 211
e 204 212
e 204 213
e 204 214
e 215 216
e 215 217
e 215 218
e 215 219
e 215 220
e 215 221
e 215 222
e 215 223
e 215 224
e 215 225
e 226 227
e 226 228
e 226 229
e 226 230
e 226 231
e 226 232
e 226 233
e 226 234
e 226 235
e 226 236
e 226 237
e 226 238
e 226 239
e 226 240
e 226 241
e 242 243
e 242 244
e 242 245
e 242 246
e 242 247
e 242 248
e 242 249
e 242 250
e 242 251
e 242 252
e 242 253
e 254 255
e 254 256
e 254 257
e 254 258
e 254 259
e 254 260
e 254 261
e 254 262
e 254 263
e 254 264
e 254 265
e 254 266
e 267 268
e 267 269
e 267 270
e 267 271
e 267 272
e 267 273
e 267 274
e 267 275
e 267 276
e 267 277
e 267 278
e 267 279
e 267 280
e 281 282
e 281 283
e 281 284
e 281 285
e 281 286
e 281 287
e 281 288
e 281 289
e 281 290
e 281 291
e 281 292
e 281 293
e 294 295
e 294 296
e 294 297
e 294 298
e 294 299
e 294 300
e 294 301
e 294 302
e 294 303
e 294 304
e 294 305
e 294 306
e 294 307
e 294 308
e 309 310
e 309 311
e 309 312
e 309 313
e 309 314
e 309 315
e 309 316
e 309 317
e 309 318
e 309 319
e 309 320
e 309 321
e 309 322
e 309 323
e 309 324
e 309 325
e 326 327
e 326 328
e 326 329
e 326 330
e 326 331
e 326 332
e 326 333
e 326 334
e 326 335
e 326 336
e 326 337
e 326 338
e 326 339
e 326 340
e 326 341
e 326 342
e 326 343
e 344 345
e 344 346
e 344 347
e 344 348
e 344 349
e 344 350
e 344 351
e 344 352
e 344 353
e 344 354
e 344 355
e 344 356
e 344 357
e 344 358
e 344 359
e 344 360
e 344 361
e 344 362
e 344 363
e 344 364
e 365 366
e 365 367
e 365 368
e 365 369
e 365 370
e 365 371
e 365 372
e 365 373
e 365 374
e 365 375
e 365 376
e 377 378
e 377 379
e 377 380
e 377 381
e 377 382
e 377 383
e 377 384
e 377 385
e 377 386
e 377 387
e 388 389
e 388 390
e 388 391
e 388 392
e 388 393
e 388 394
e 388 395
e 388 396
e 388 397
e 388 398
e 388 399
e 388 400
e 388 401
e 388 402
e 388 403
e 388 404
e 388 405
e 388 406
e 388 407
e 408 409
e 408 410
e 408 411
e 408 412
e 408 413
e 408 414
e 408 415
e 408 416
e 408 417
e 408 418
e 408 419
e 408 420
e 408 421
e 422 423
e 422 424
e 422 425
e 422 426
e 422 427
e 422 428
e 422 429
e 422 430
e 422 431
e 422 432
e 422 433
e 422 434
e 422 435
e 422 436
e 422 437
e 422 438
e 422 439
e 422 440
e 422 441
e 422 442
e 443 444
e 443 445
e 443 446
e 443 447
e 443 448
e 443 449
e 443 450
e 443 451
e 443 452
e 443 453
e 443 454
e 443 455
e 443 456
e 443 457
e 443 458
e 459 460
e 459 461
e 459 462
e 459 463
e 459 464
e 459 465
e 459 466
e 459 467
e 459 468
e 459 469
e 459 470
e 459 471
e 459 472
e 459 473
e 459 474
e 475 476
e 475 477
e 475 478
e 475 479
e 475 480
e 475 481
e 475 482
e 475 483
e 475 484
e 475 485
e 475 486
e 487 488
e 487 489
e 487 490
e 487 491
e 487 492
e 487 493
e 487 494
e 487 495
e 487 496
e 487 497
e 487 498
e 487 499
e 487 500
e 487 501
e 487 502
e 503 504
e 503 505
e 503 506
e 503 507
e 503 508
e 503 509
e 503 510
e 503 511
e 503 512
e 503 513
e 503 514
e 503 515
e 503 516
e 503 517
e 503 518
e 503 519
e 503 520
e 503 521
e 522 523
e 522 524
e 522 525
e 522 526
e 522 527
e 522 528
e 522 529
e 522 530
e 522 531
e 522 532
e 522 533
e 522 534
